c Random generated cnf formula, satisfiable: true
p cnf 10 50
8 2 -6 0
-10 5 9 0
-1 9 -3 0
-3 4 -8 0
1 6 4 0
7 6 -3 0
4 6 7 0
-8 7 3 0
-8 -4 9 0
-6 -7 -3 0
6 -1 9 0
2 -4 -7 0
9 -8 -1 0
3 10 -7 0
6 5 -8 0
-1 7 2 0
6 4 -10 0
-2 8 3 0
9 7 -2 0
-1 10 5 0
-1 6 -5 0
5 10 1 0
8 5 9 0
2 9 1 0
5 -10 -1 0
-8 3 2 0
7 10 5 0
9 -1 5 0
10 1 7 0
-3 6 9 0
-8 -3 -7 0
-4 2 9 0
10 -2 3 0
-10 1 7 0
8 -2 3 0
-1 -5 -10 0
-3 5 1 0
5 9 2 0
-6 -9 -1 0
2 -6 -5 0
-1 -9 -10 0
-10 -2 -4 0
-6 10 -1 0
-2 5 7 0
-4 -3 -9 0
10 -1 -2 0
8 -1 -3 0
3 6 -2 0
7 -5 2 0
2 3 7 0
